%%% static parameters %%%
timespan = 1;
Fact = [1];
Distr1 = [15];
Distr2 = [20];
Clients_N = [100];
Demand_W = [15];
Lt0 = [4];
Lt1 = [4];
SS_ = [0.85];
DS_D = [20];
K = [200];
MA = [500];
%%% dynamic parameters %%%
lost_ratio_sales_ret_th = 0.0012648739206815563;
lost_ratio_sales_ret_w = 19;
lost_ratio_sales_dis_th = 0.0074776321265334605;
lost_ratio_sales_dis_w = 87;
lost_ratio_sales_fac_th = 9.559520784056419e-05;
lost_ratio_sales_fac_w = 35;
stock_customer_MA_mean_relative_th = 0.8506715032932298;
stock_customer_MA_mean_relative_w = 11;
stock_distributor_MA_mean_relative_th = 0.6216281393061857;
stock_distributor_MA_mean_relative_w = 45;
stock_retailer_MA_mean_relative_th = 0.35867684499648933;
stock_retailer_MA_mean_relative_w = 12;
stock_factory_MA_mean_relative_th = 0.5407680855411577;
stock_factory_MA_mean_relative_w = 20;
